c File: data_files/evolved_graphs/g6191.col
c
c Auto generated graph
c
p edge 100 1157
e 1 5
e 1 14
e 1 20
e 1 23
e 1 25
e 1 31
e 1 40
e 1 41
e 1 43
e 1 50
e 1 54
e 1 55
e 1 62
e 1 70
e 1 71
e 1 74
e 1 75
e 1 82
e 1 84
e 1 86
e 1 87
e 1 99
e 2 7
e 2 14
e 2 24
e 2 26
e 2 29
e 2 42
e 2 48
e 2 55
e 2 65
e 2 67
e 2 69
e 2 70
e 2 76
e 2 77
e 2 78
e 2 80
e 2 81
e 2 82
e 2 89
e 2 90
e 2 98
e 2 99
e 3 5
e 3 12
e 3 19
e 3 27
e 3 40
e 3 42
e 3 45
e 3 48
e 3 50
e 3 53
e 3 57
e 3 62
e 3 71
e 3 76
e 3 77
e 3 80
e 3 83
e 3 85
e 3 86
e 3 92
e 3 93
e 3 96
e 3 98
e 4 7
e 4 9
e 4 12
e 4 18
e 4 34
e 4 36
e 4 37
e 4 41
e 4 43
e 4 44
e 4 47
e 4 48
e 4 56
e 4 57
e 4 61
e 4 69
e 4 74
e 4 77
e 4 78
e 4 79
e 4 83
e 4 84
e 4 94
e 4 99
e 4 100
e 5 13
e 5 23
e 5 29
e 5 35
e 5 37
e 5 41
e 5 44
e 5 63
e 5 64
e 5 65
e 5 66
e 5 69
e 5 71
e 5 74
e 5 80
e 5 83
e 5 86
e 5 92
e 5 93
e 5 94
e 5 95
e 6 9
e 6 14
e 6 18
e 6 22
e 6 34
e 6 36
e 6 37
e 6 43
e 6 45
e 6 46
e 6 49
e 6 51
e 6 54
e 6 58
e 6 59
e 6 62
e 6 64
e 6 65
e 6 66
e 6 79
e 6 80
e 6 82
e 6 83
e 6 93
e 6 95
e 7 14
e 7 18
e 7 20
e 7 24
e 7 29
e 7 32
e 7 33
e 7 34
e 7 37
e 7 43
e 7 52
e 7 53
e 7 60
e 7 61
e 7 62
e 7 63
e 7 78
e 7 81
e 7 92
e 8 13
e 8 28
e 8 33
e 8 34
e 8 38
e 8 41
e 8 44
e 8 48
e 8 53
e 8 54
e 8 59
e 8 67
e 8 72
e 8 79
e 8 80
e 8 81
e 8 84
e 8 88
e 8 91
e 8 94
e 8 99
e 9 13
e 9 21
e 9 22
e 9 26
e 9 30
e 9 33
e 9 48
e 9 49
e 9 54
e 9 56
e 9 57
e 9 60
e 9 61
e 9 68
e 9 71
e 9 77
e 9 82
e 9 93
e 9 97
e 9 99
e 10 32
e 10 33
e 10 44
e 10 46
e 10 51
e 10 52
e 10 55
e 10 57
e 10 62
e 10 66
e 10 69
e 10 71
e 10 73
e 10 75
e 10 86
e 10 89
e 10 96
e 10 100
e 11 21
e 11 28
e 11 32
e 11 34
e 11 35
e 11 44
e 11 50
e 11 54
e 11 56
e 11 59
e 11 63
e 11 64
e 11 69
e 11 80
e 11 89
e 11 92
e 11 96
e 11 97
e 12 20
e 12 25
e 12 43
e 12 44
e 12 54
e 12 59
e 12 62
e 12 65
e 12 67
e 12 68
e 12 69
e 12 70
e 12 72
e 12 74
e 12 85
e 12 87
e 12 92
e 12 98
e 12 100
e 13 16
e 13 22
e 13 24
e 13 26
e 13 30
e 13 35
e 13 41
e 13 48
e 13 57
e 13 58
e 13 63
e 13 67
e 13 68
e 13 69
e 13 72
e 13 86
e 14 16
e 14 18
e 14 27
e 14 33
e 14 39
e 14 43
e 14 53
e 14 54
e 14 57
e 14 69
e 14 72
e 14 73
e 14 77
e 14 82
e 14 90
e 14 92
e 15 18
e 15 30
e 15 38
e 15 43
e 15 44
e 15 45
e 15 53
e 15 63
e 15 64
e 15 73
e 15 77
e 15 87
e 15 89
e 15 93
e 15 95
e 15 97
e 16 17
e 16 25
e 16 27
e 16 28
e 16 29
e 16 30
e 16 39
e 16 41
e 16 43
e 16 45
e 16 55
e 16 56
e 16 66
e 16 69
e 16 74
e 16 83
e 16 88
e 16 97
e 17 18
e 17 19
e 17 20
e 17 21
e 17 32
e 17 35
e 17 38
e 17 39
e 17 40
e 17 48
e 17 56
e 17 57
e 17 58
e 17 62
e 17 63
e 17 66
e 17 67
e 17 69
e 17 72
e 17 75
e 17 82
e 17 85
e 17 88
e 17 97
e 18 19
e 18 26
e 18 27
e 18 34
e 18 35
e 18 40
e 18 45
e 18 49
e 18 55
e 18 57
e 18 58
e 18 61
e 18 70
e 18 72
e 18 74
e 18 75
e 18 84
e 18 86
e 18 97
e 19 21
e 19 23
e 19 26
e 19 27
e 19 30
e 19 31
e 19 33
e 19 35
e 19 36
e 19 37
e 19 38
e 19 44
e 19 45
e 19 48
e 19 49
e 19 52
e 19 56
e 19 57
e 19 59
e 19 70
e 19 85
e 19 86
e 19 95
e 20 21
e 20 22
e 20 27
e 20 28
e 20 46
e 20 52
e 20 53
e 20 58
e 20 65
e 20 67
e 20 76
e 20 77
e 20 83
e 20 85
e 20 87
e 20 97
e 21 30
e 21 39
e 21 42
e 21 44
e 21 45
e 21 46
e 21 56
e 21 61
e 21 62
e 21 63
e 21 65
e 21 72
e 21 81
e 21 86
e 21 90
e 22 25
e 22 27
e 22 32
e 22 36
e 22 39
e 22 40
e 22 41
e 22 42
e 22 43
e 22 48
e 22 49
e 22 50
e 22 51
e 22 52
e 22 56
e 22 59
e 22 65
e 22 68
e 22 72
e 22 81
e 22 84
e 22 87
e 22 89
e 22 99
e 23 26
e 23 27
e 23 32
e 23 36
e 23 41
e 23 45
e 23 53
e 23 54
e 23 58
e 23 60
e 23 63
e 23 64
e 23 65
e 23 71
e 23 72
e 23 77
e 23 90
e 23 91
e 23 96
e 23 99
e 23 100
e 24 32
e 24 35
e 24 36
e 24 42
e 24 43
e 24 44
e 24 46
e 24 47
e 24 49
e 24 50
e 24 54
e 24 55
e 24 61
e 24 67
e 24 68
e 24 71
e 24 74
e 24 79
e 24 81
e 24 82
e 24 85
e 24 91
e 24 98
e 25 29
e 25 31
e 25 37
e 25 39
e 25 40
e 25 42
e 25 46
e 25 50
e 25 51
e 25 53
e 25 55
e 25 68
e 25 69
e 25 72
e 25 79
e 25 91
e 25 97
e 26 36
e 26 40
e 26 43
e 26 45
e 26 51
e 26 60
e 26 61
e 26 65
e 26 67
e 26 73
e 26 76
e 26 78
e 26 84
e 26 90
e 27 30
e 27 49
e 27 51
e 27 54
e 27 55
e 27 64
e 27 67
e 27 72
e 27 79
e 27 80
e 27 85
e 27 87
e 27 92
e 27 93
e 28 31
e 28 32
e 28 35
e 28 38
e 28 43
e 28 45
e 28 46
e 28 53
e 28 67
e 28 70
e 28 71
e 28 84
e 28 87
e 28 95
e 28 96
e 28 98
e 28 99
e 28 100
e 29 30
e 29 41
e 29 49
e 29 59
e 29 66
e 29 74
e 29 81
e 29 82
e 29 83
e 29 84
e 29 89
e 29 93
e 29 97
e 29 98
e 29 100
e 30 31
e 30 35
e 30 47
e 30 51
e 30 52
e 30 53
e 30 62
e 30 65
e 30 75
e 30 82
e 30 91
e 30 92
e 30 94
e 30 96
e 31 34
e 31 36
e 31 46
e 31 47
e 31 57
e 31 64
e 31 67
e 31 74
e 31 75
e 31 90
e 31 91
e 31 93
e 31 95
e 31 97
e 31 98
e 31 99
e 32 36
e 32 45
e 32 52
e 32 55
e 32 57
e 32 59
e 32 60
e 32 62
e 32 64
e 32 76
e 32 77
e 32 92
e 32 97
e 32 98
e 32 99
e 32 100
e 33 34
e 33 36
e 33 37
e 33 40
e 33 41
e 33 42
e 33 43
e 33 52
e 33 55
e 33 60
e 33 63
e 33 66
e 33 67
e 33 68
e 33 75
e 33 77
e 33 90
e 33 92
e 33 94
e 33 95
e 33 96
e 34 36
e 34 40
e 34 41
e 34 42
e 34 44
e 34 47
e 34 55
e 34 63
e 34 65
e 34 71
e 34 76
e 34 82
e 34 88
e 34 89
e 34 91
e 34 96
e 34 97
e 34 98
e 35 40
e 35 42
e 35 44
e 35 46
e 35 55
e 35 59
e 35 65
e 35 68
e 35 73
e 35 75
e 35 78
e 35 83
e 35 85
e 35 90
e 35 92
e 35 94
e 35 95
e 36 37
e 36 39
e 36 41
e 36 42
e 36 44
e 36 49
e 36 53
e 36 55
e 36 74
e 36 83
e 36 85
e 36 98
e 37 41
e 37 49
e 37 52
e 37 55
e 37 56
e 37 57
e 37 67
e 37 70
e 37 77
e 37 78
e 37 80
e 37 83
e 37 86
e 37 87
e 38 45
e 38 48
e 38 53
e 38 55
e 38 66
e 38 79
e 38 81
e 38 84
e 38 85
e 38 87
e 38 88
e 38 92
e 38 96
e 38 99
e 38 100
e 39 42
e 39 54
e 39 66
e 39 78
e 39 82
e 39 83
e 39 86
e 39 87
e 39 89
e 39 90
e 39 91
e 39 92
e 39 94
e 40 43
e 40 46
e 40 56
e 40 69
e 40 81
e 40 83
e 40 88
e 40 91
e 40 92
e 40 93
e 40 94
e 40 99
e 40 100
e 41 44
e 41 47
e 41 48
e 41 50
e 41 53
e 41 55
e 41 56
e 41 66
e 41 69
e 41 84
e 41 85
e 41 87
e 41 90
e 41 92
e 41 93
e 42 44
e 42 45
e 42 46
e 42 48
e 42 50
e 42 53
e 42 60
e 42 68
e 42 71
e 42 80
e 42 87
e 42 89
e 42 90
e 42 94
e 43 44
e 43 59
e 43 63
e 43 69
e 43 74
e 43 78
e 43 79
e 43 80
e 43 85
e 43 86
e 43 88
e 43 89
e 44 54
e 44 64
e 44 69
e 44 75
e 44 76
e 44 81
e 44 85
e 44 87
e 44 91
e 44 95
e 45 50
e 45 54
e 45 56
e 45 57
e 45 64
e 45 65
e 45 68
e 45 79
e 45 81
e 45 88
e 45 89
e 45 95
e 46 53
e 46 55
e 46 61
e 46 64
e 46 65
e 46 66
e 46 67
e 46 77
e 46 78
e 46 79
e 46 80
e 46 84
e 46 85
e 46 88
e 46 90
e 46 91
e 47 49
e 47 56
e 47 58
e 47 65
e 47 67
e 47 73
e 47 86
e 47 88
e 47 89
e 47 91
e 47 92
e 47 94
e 47 95
e 47 100
e 48 54
e 48 62
e 48 78
e 48 79
e 48 85
e 48 89
e 48 95
e 48 99
e 49 56
e 49 59
e 49 60
e 49 61
e 49 69
e 49 74
e 49 85
e 49 87
e 49 88
e 49 89
e 49 94
e 49 95
e 49 96
e 50 56
e 50 59
e 50 62
e 50 68
e 50 77
e 50 79
e 50 80
e 50 86
e 50 90
e 50 91
e 50 94
e 50 96
e 50 97
e 50 98
e 51 52
e 51 55
e 51 63
e 51 69
e 51 73
e 51 76
e 51 79
e 51 80
e 51 81
e 51 84
e 51 85
e 51 86
e 51 94
e 51 95
e 51 98
e 52 53
e 52 54
e 52 55
e 52 56
e 52 57
e 52 62
e 52 65
e 52 68
e 52 71
e 52 73
e 52 74
e 52 76
e 52 78
e 52 84
e 52 88
e 52 91
e 52 94
e 52 96
e 53 54
e 53 57
e 53 61
e 53 73
e 53 77
e 53 88
e 53 90
e 53 96
e 54 62
e 54 70
e 54 73
e 54 81
e 54 83
e 54 88
e 54 91
e 54 100
e 55 60
e 55 63
e 55 65
e 55 68
e 55 70
e 55 84
e 55 85
e 55 87
e 55 88
e 55 99
e 56 59
e 56 61
e 56 63
e 56 69
e 56 71
e 56 73
e 56 81
e 56 83
e 56 88
e 56 98
e 57 63
e 57 68
e 57 69
e 57 70
e 57 71
e 57 74
e 57 75
e 57 77
e 57 79
e 57 84
e 57 85
e 57 89
e 57 91
e 57 92
e 57 94
e 57 98
e 58 59
e 58 60
e 58 61
e 58 63
e 58 66
e 58 70
e 58 71
e 58 80
e 58 81
e 58 85
e 58 87
e 58 91
e 59 60
e 59 65
e 59 70
e 59 72
e 59 77
e 59 79
e 59 84
e 59 89
e 59 93
e 60 62
e 60 79
e 60 80
e 60 84
e 60 87
e 60 88
e 60 91
e 60 92
e 60 95
e 60 98
e 61 62
e 61 70
e 61 73
e 61 74
e 61 75
e 61 93
e 62 64
e 62 70
e 62 75
e 62 80
e 62 82
e 62 90
e 62 95
e 62 100
e 63 70
e 63 79
e 63 83
e 63 85
e 63 88
e 63 89
e 63 90
e 63 95
e 63 96
e 64 67
e 64 73
e 64 74
e 64 75
e 64 77
e 64 78
e 64 80
e 64 81
e 64 83
e 64 89
e 64 96
e 64 99
e 65 69
e 65 71
e 65 77
e 65 82
e 65 94
e 66 74
e 66 76
e 66 77
e 66 78
e 66 81
e 66 82
e 66 86
e 66 92
e 66 93
e 67 72
e 67 75
e 67 77
e 67 78
e 67 79
e 67 80
e 67 83
e 67 89
e 68 72
e 68 74
e 68 75
e 68 80
e 68 81
e 68 85
e 68 90
e 68 92
e 68 95
e 69 76
e 69 79
e 69 80
e 70 76
e 70 89
e 70 90
e 70 91
e 70 99
e 70 100
e 71 72
e 71 75
e 71 76
e 71 86
e 71 88
e 71 93
e 71 96
e 71 99
e 72 73
e 72 75
e 72 80
e 72 86
e 72 88
e 72 90
e 72 93
e 72 100
e 73 86
e 73 87
e 73 89
e 73 90
e 73 92
e 73 93
e 73 98
e 74 75
e 74 76
e 74 88
e 74 92
e 74 94
e 74 98
e 75 83
e 75 84
e 75 89
e 75 96
e 75 99
e 76 80
e 76 83
e 76 86
e 76 88
e 76 89
e 76 91
e 76 95
e 76 96
e 77 81
e 77 85
e 77 86
e 77 94
e 77 99
e 78 85
e 78 86
e 78 90
e 78 91
e 78 93
e 78 96
e 79 91
e 79 92
e 79 93
e 79 95
e 80 94
e 80 97
e 80 100
e 81 84
e 81 86
e 81 91
e 81 98
e 81 99
e 82 84
e 82 85
e 82 92
e 82 96
e 82 97
e 82 98
e 83 84
e 83 98
e 83 100
e 84 95
e 84 100
e 85 88
e 85 97
e 85 100
e 86 94
e 86 95
e 86 96
e 87 93
e 87 94
e 87 96
e 87 98
e 88 95
e 88 96
e 88 98
e 89 92
e 90 93
e 90 95
e 90 96
e 90 99
e 90 100
e 91 96
e 91 97
e 92 93
e 93 97
e 93 98
e 93 100
e 94 97
e 94 100
e 95 99
e 96 100
e 97 100
e 99 100
